\ Model Fischetti_diff_copy
\ LP format - for model browsing. Use MPS format to capture full model detail.
Minimize
 
Subject To
 R4: 2.879850149154663 C0 - 0.8426412343978882 C1 - C2 + C10
   = -0.5241518020629883
 R5: C2 - 0.8376610177199098 C15 <= 0
 R9: 1.255256772041321 C0 - 2.670398712158203 C1 + C3 = 2.376555442810059
 R11: 5.503687620162964 C2 - 4.582751989364624 C3 - 20.11192307177767 C9
   >= -18.68577713075862
Bounds
 C0 free
 C1 >= 3.749969282150269
 C2 free
 C3 free
Binaries
 C9 C15
End
